NAME: Test TSP file problem
TYPE: TSP
COMMENT: Test TSP file problem with full Matrix distance or duration
DIMENSION: 4
EDGE_WEIGHT_TYPE: EXPLICIT
EDGE_WEIGHT_FORMAT: FULL_MATRIX
DISPLAY_DATA_TYPE: TWOD_DISPLAY
EDGE_WEIGHT_SECTION 
0.0 800.1 1532.4 1064.9 
1915.1 0.0 1223.4 1622.0 
1637.9 1162.1 0.0 1288.0 
1201.7 725.9 572.9 0.0 
DISPLAY_DATA_SECTION 
1 43.73252261541049 7.427304983139038
2 43.73303427078527 7.4200522899627686
3 43.73439091160204 7.4202024936676025
4 43.734987823825215 7.4174559116363525
EOF